
Gurobi 12.0.2 (mac64[arm]) logging started Sat Jun 14 01:27:54 2025

Set parameter LogFile to value "/Users/yurunfeng/Documents/GitHub/LRGTS-store-location/result/gurobi/snyder/15nodes/15-0.95-5.log"
Gurobi Optimizer version 12.0.2 build v12.0.2rc0 (mac64[arm] - Darwin 24.5.0 24F74)

CPU model: Apple M4
Thread count: 10 physical cores, 10 logical processors, using up to 10 threads

Non-default parameters:
TimeLimit  1200

Optimize a model with 4785 rows, 7245 columns and 33600 nonzeros
Model fingerprint: 0xa773246f
Variable types: 3615 continuous, 3630 integer (3630 binary)
Coefficient statistics:
  Matrix range     [5e-02, 1e+00]
  Objective range  [7e+03, 3e+06]
  Bounds range     [1e+00, 1e+00]
  RHS range        [1e+00, 5e+00]
Found heuristic solution: objective 1.648316e+07
Presolve removed 481 rows and 241 columns
Presolve time: 0.74s
Presolved: 4304 rows, 7004 columns, 29488 nonzeros
Variable types: 3374 continuous, 3630 integer (3630 binary)

Root relaxation: objective 6.653677e+05, 1110 iterations, 0.02 seconds (0.04 work units)

    Nodes    |    Current Node    |     Objective Bounds      |     Work
 Expl Unexpl |  Obj  Depth IntInf | Incumbent    BestBd   Gap | It/Node Time

     0     0 665367.686    0  189 1.6483e+07 665367.686  96.0%     -    0s
H    0     0                    731346.77962 665367.686  9.02%     -    0s
H    0     0                    719481.02029 665367.686  7.52%     -    0s
H    0     0                    671848.90313 665367.686  0.96%     -    0s
H    0     0                    671848.71161 665367.686  0.96%     -    0s
H    0     0                    669078.31098 665367.686  0.55%     -    0s
H    0     0                    669005.36101 665367.686  0.54%     -    0s
H    0     0                    667199.81459 665367.686  0.27%     -    0s
     0     0 665605.081    0  168 667199.815 665605.081  0.24%     -    0s
H    0     0                    666028.78898 665605.081  0.06%     -    1s
H    0     0                    665690.24716 665605.081  0.01%     -    1s

Explored 1 nodes (1302 simplex iterations) in 1.06 seconds (1.75 work units)
Thread count was 10 (of 10 available processors)

Solution count 9: 665690 666029 667200 ... 1.64832e+07

Optimal solution found (tolerance 1.00e-04)
Best objective 6.656902471605e+05, best bound 6.656902471605e+05, gap 0.0000%
